Route #1: 1 1 12 5 4 6 3 80 84 79 88 92 95 91 86 78 77 81 7 64 1 
Route #2: 1 16 9 13 14 17 85 82 96 97 1 
Route #3: 1 8 100 47 59 35 38 24 33 22 19 65 62 57 58 98 1 
Route #4: 1 2 89 87 83 93 90 18 10 43 52 55 99 1 
Route #5: 1 15 94 76 21 27 61 1 
Route #6: 1 42 40 74 68 72 71 44 39 41 48 50 51 49 11 1 
Route #7: 1 54 53 60 63 25 30 70 1 
Route #8: 1 46 67 75 26 31 23 37 1 
Route #9: 1 45 69 66 32 28 1 
Route #10: 1 56 29 34 1 
Route #11: 1 20 36 73 1 

Cost 3389.68
Time 1.2227


 * Another infos *

 Iterations: 101 Time: 1.2227 sec - 0.0204 min - 0.0003 horas
0.0000 h 0.0204 min
Problem dimension: 101
